instances/p2/p2_15_3-3.dzn
Alphabet = {A,C,G,T};
ns = 15;
nc = 3;
neighbours = [| I(G),Null,Null | I(C),Null,Null | I(A),Null,Null | Null,Null,Null | I(C),I(T),Null | I(C),Null,Null | I(C),I(T),I(A) | I(T),I(T),Null | I(T),I(A),I(C) | I(G),Null,Null | I(A),I(A),Null | Null,Null,Null | I(C),Null,Null | I(T),I(C),Null | I(T),I(T),I(G) |];
